%chk=MIL-53_DFT.chk
# opt 6-311++g(d,p) umn15l

MIL-53_OPT

2 3
 Fe                 1.73189743    2.53329673    4.02158688
 V                  3.91327882    1.61910167    2.24759928
 O                  0.96908300    1.10900823    8.74852218
 O                  4.46421508    1.26639239    3.77610765
 O                  6.46084768   -0.04493385    6.13300083
 C                  1.50233004    2.04522021    7.65967220
 C                  2.76073101    1.69953164    8.63611010
 C                  3.51081530    0.56859658    9.00675825
 C                  4.53265814    0.93900964    8.68373131
 C                  5.26776893    1.53966323    7.71697393
 C                  5.80479480    1.17651840    6.43777699
 C                  6.63512585    2.09793394   10.28075410
 C                  9.96971852    0.59586016   10.09207730
 C                  9.30308516    1.27343361    9.09905698
 C                  7.06345681    4.59542896    9.16554558
 C                  6.61216655    1.64346533    9.13917437
 C                  5.97044424    4.67423900    8.58148381
 O                  7.15808825    1.47705660   11.00915460
 O                 10.04186605    0.41231777   11.18246145
 O                  8.34726679    2.36606361    8.77738285
 O                  7.77976395    5.27965483    9.57634899
 O                  5.89575876    1.39368198    8.66323206
 O                  5.27716556    4.94719488    7.97336590
 C                  7.81719678    1.37886474    9.59968757
 C                  6.81319629    3.18302330    9.40194675
 Fe                 8.45152410   -0.36113500    6.76757477
 Fe                11.11015285    5.01604659    4.66000294
 Fe                 2.23298378    4.27502502    1.85167644
 V                  9.73877355    1.30365807    7.26089779
 V                  9.16737662    3.28657623    5.43470800
 V                  3.96450633    3.14330755    3.36611429
 O                  7.36218841    6.41900771    4.78567209
 O                 10.61733111    1.68802871    8.83343456
 O                 16.66316945    4.05019307    1.15708575
 O                 16.77899477    6.21860794    1.32014714
 O                 10.56897404   -0.49509805    7.68119595
 O                  8.08316845    4.87747415    3.86421709
 O                  1.07240177    2.75588067    8.90992424
 O                  7.67823032    3.04359843    7.75471427
 O                 10.00798577    1.84043656    5.41431560
 O                  5.47003417    2.88013299    1.26647515
 O                  1.42772049    3.03220424    1.30305395
 O                 16.44527449    2.83019583   11.08775612
 O                 10.44211498    3.54300860    3.73216008
 O                 10.78190289    7.09599013    4.70066317
 O                 16.49206368    0.64975821   11.09843510
 O                  0.33284469    4.39138205    2.24859535
 O                  6.91745572    1.83233656    7.25186186
 C                  7.18245698    5.68807799    3.69912425
 C                 10.56268030    0.39060360    8.71316326
 C                 16.22563861    5.12924747    1.64972065
 C                  5.82897307    5.55178469    2.80192012
 C                 11.75291908    0.91693051    8.60282457
 C                 14.99337635    5.17138219    2.61649816
 C                  3.91754755    6.00041583    3.44605243
 C                 12.59083877    2.74694519    9.23924115
 C                 14.00567385    4.21811325    2.83883807
 C                 14.36341765    6.23510675    3.43592265
 C                 13.14904833    0.33220765    8.74484250
 C                  5.75362449    4.06320309    1.90550461
 C                  3.60459991    2.79664942    8.88114767
 C                  4.21518886    5.17678493    2.48364215
 C                 13.96668324    2.58152770    9.31821935
 C                 12.70630911    4.25423955    3.25011396
 C                 13.16537564    6.13269902    3.23242993
 C                 14.29289695    0.50471903    9.06570394
 C                  4.95556655    4.14738474    1.97231269
 C                  4.61670450    2.67339728    8.08773541
 C                  3.77100467    4.65384690    1.39219213
 C                 14.87196879    1.60142056    9.65596910
 C                 12.02298540    5.38004544    3.48931503
 C                  1.44753611    4.72057449    0.27798905
 C                 16.02480902    1.71389367   10.64817354
 C                 10.25301256    6.28788085    3.71432686
 C                  5.15775542    5.90132737    4.06970121
 C                  8.73068188    4.76167929    5.05272142
 C                  9.98972537    3.18542173    6.88336858
 C                 11.48219593    5.21614091    2.18953327
 C                 12.94689044    1.08504303    7.58022024
 C                  8.09907491    2.25040660    7.01285455
 C                  7.57583457    4.16354902    5.20550435
 C                  3.51334991    4.82856953    7.37885353
 C                 13.94301677    2.47218602    5.36011424
 C                  7.71569504    5.46550845    1.62989588
 C                  4.21320496    4.72840415    6.38059950
 C                 12.92005600    3.25658698    5.85025069
 C                  8.59954436    5.70203497    2.45941095
 C                  5.69270446    3.25109132    5.43816529
 C                 12.31735646    4.35045684    5.22495620
 C                 10.64982854    2.09806133    2.97347553
 C                  4.50100930    4.72803141    4.25490233
 C                  8.10939087    3.72762867    6.96228279
 C                  8.61498094    2.19100175    5.78471820
 C                 10.85055505    5.98487471    2.99326552
 C                 12.06632308    2.21207514    8.01310571
 C                  7.74394884    3.16643307    5.32897064
 C                  9.03874296    4.47957519    6.72005914
 C                  4.25306880    2.70562753    5.25274196
 C                 12.45484117    4.41135060    6.43051737
 C                 11.85811553    2.32386527    3.29208704
 O                  5.13243873    6.35621558    5.22299394
 O                 10.60179153    3.34624703    4.95650133
 O                 11.29727647    3.88004550    5.85797262
 O                 10.60485553    4.66034727    1.75328206
 O                 13.45016615    0.49995199    6.71094711
 O                  6.50837596    2.97988548    7.23631934
 O                  7.18610572    2.20579921    6.13806929
 O                  2.44356254    5.15723257    7.69127102
 O                 15.11194178    2.31463335    4.93170055
 O                  7.14822748    5.29243843    0.64424501
 O                  4.73307251    4.05028519    6.07887208
 O                 11.52633639    3.70099451    6.86588752
 O                  8.92665025    6.03497813    3.67994465
 O                  4.87954021    2.91245987    6.40429921
 O                 13.46967313    3.76233101    4.44319901
 O                 10.00010064    1.38279063    2.39312044
 O                  4.84568261    6.46962375    3.03890973
 O                  8.57384505    3.91442201    8.42322394
 O                 10.08652468    4.18573978    5.72694029
 O                 12.23310865    6.36477587    2.36089353
 O                 12.72275727    1.35538737    9.24637254
 O                  8.04414301    3.53854774    4.04918982
 O                  7.38773461    3.19860689    6.54405817
 O                  3.50722813    1.75996761    4.42642588
 O                 12.42996881    4.49989223    7.85636372
 O                 12.80016544    1.98358570    3.70902346
 C                  4.44490821    5.27385028    5.44361892
 C                 11.23852126    2.72592968    6.32382281
 C                  9.43061202    4.38200970    3.93929152
 C                  9.76288460    5.47538969    2.21992391
 C                 13.45777747    2.63366902    7.77664488
 C                  6.43914624    3.83067733    6.03511940
 C                  8.93255012    2.84581095    7.94522308
 C                  5.01176361    4.30439550    4.88586769
 C                 10.90614575    4.54250761    6.71982220
 C                 10.23266140    2.01257318    4.39610170
 C                 11.02600391    3.66524713    2.82361253
 C                 12.88528918    2.35561891    6.74389065
 C                  6.28030379    2.34773479    5.77041084
 C                  6.91233900    4.46114896    7.60163059
 Tv                17.69560000    0.00000000    0.00000000
 Tv                 0.00000000    6.87450000    0.00000000
 Tv                 0.00000000    0.00000000   11.93030000

