%chk=step_000_DFT.chk
# opt umn15l/6-311++g(d,p) geom=connectivity

Fe2CO2_OPT

2 3
 Fe                 2.74538330    8.28679554    5.00000000
 O                  4.55208397    8.06717607    5.00000000
 C                  5.30819317    9.07309328    5.00000000
 O                  5.97838127    9.96470142    5.00000000

 1 2 1.0
 2 3 2.0
 3 4 3.0
 4

